ID_groupA
62566
15949
40494
87932
62566
62566
87932
40494
15949
62566
62566
40494
87932
62566
15949
40494
15949
62566
62566
40494
40494
15949
62566
62566
15949
62566
62566
40494
15949
15949
15949
40494
15949
15949
15949
15949
15949
15949
15949
40494
40494
40494
40494
40494
40494
40494
40494
40494
40494
40494
62566
62566
87932
40494
15949
62566
62566
15949
87932
62566
62566
87932
62566
62566
62566
62566
62566
62566
62566
62566
62566
62566
62566
62566
62566
62566
62566
40494
15949
62566
62566
40494
87932
87932
15949
62566
62566
40494
87932
40494
15949
62566
15949
62566
15949
62566
15949
62566
62566
62566
62566
62566
40494
40494
62566
